certificates/rado_a9_c285_N32.cnf
c Rad2 upper bound instance: x1 + 9*x2 - x3 = 285, interval [1,32]
p cnf 32 160
1 4 32 0
-1 -4 -32 0
2 5 32 0
-2 -5 -32 0
3 6 32 0
-3 -6 -32 0
4 7 32 0
-4 -7 -32 0
5 8 32 0
-5 -8 -32 0
6 9 32 0
-6 -9 -32 0
1 7 31 0
-1 -7 -31 0
7 10 32 0
-7 -10 -32 0
2 8 31 0
-2 -8 -31 0
8 11 32 0
-8 -11 -32 0
3 9 31 0
-3 -9 -31 0
9 12 32 0
-9 -12 -32 0
4 10 31 0
-4 -10 -31 0
10 13 32 0
-10 -13 -32 0
5 11 31 0
-5 -11 -31 0
11 14 32 0
-11 -14 -32 0
6 12 31 0
-6 -12 -31 0
12 15 32 0
-12 -15 -32 0
7 13 31 0
-7 -13 -31 0
13 16 32 0
-13 -16 -32 0
8 14 31 0
-8 -14 -31 0
14 17 32 0
-14 -17 -32 0
9 15 31 0
-9 -15 -31 0
15 18 32 0
-15 -18 -32 0
1 16 30 0
-1 -16 -30 0
10 16 31 0
-10 -16 -31 0
16 19 32 0
-16 -19 -32 0
2 17 30 0
-2 -17 -30 0
11 17 31 0
-11 -17 -31 0
17 20 32 0
-17 -20 -32 0
3 18 30 0
-3 -18 -30 0
12 18 31 0
-12 -18 -31 0
18 21 32 0
-18 -21 -32 0
4 19 30 0
-4 -19 -30 0
13 19 31 0
-13 -19 -31 0
19 22 32 0
-19 -22 -32 0
5 20 30 0
-5 -20 -30 0
14 20 31 0
-14 -20 -31 0
20 23 32 0
-20 -23 -32 0
6 21 30 0
-6 -21 -30 0
15 21 31 0
-15 -21 -31 0
21 24 32 0
-21 -24 -32 0
7 22 30 0
-7 -22 -30 0
16 22 31 0
-16 -22 -31 0
22 25 32 0
-22 -25 -32 0
8 23 30 0
-8 -23 -30 0
17 23 31 0
-17 -23 -31 0
23 26 32 0
-23 -26 -32 0
9 24 30 0
-9 -24 -30 0
18 24 31 0
-18 -24 -31 0
24 27 32 0
-24 -27 -32 0
1 25 29 0
-1 -25 -29 0
10 25 30 0
-10 -25 -30 0
19 25 31 0
-19 -25 -31 0
25 28 32 0
-25 -28 -32 0
2 26 29 0
-2 -26 -29 0
11 26 30 0
-11 -26 -30 0
20 26 31 0
-20 -26 -31 0
26 29 32 0
-26 -29 -32 0
3 27 29 0
-3 -27 -29 0
12 27 30 0
-12 -27 -30 0
21 27 31 0
-21 -27 -31 0
27 30 32 0
-27 -30 -32 0
4 28 29 0
-4 -28 -29 0
13 28 30 0
-13 -28 -30 0
22 28 31 0
-22 -28 -31 0
28 31 32 0
-28 -31 -32 0
5 29 0
-5 -29 0
14 29 30 0
-14 -29 -30 0
23 29 31 0
-23 -29 -31 0
29 32 0
-29 -32 0
6 29 30 0
-6 -29 -30 0
15 30 0
-15 -30 0
24 30 31 0
-24 -30 -31 0
7 29 31 0
-7 -29 -31 0
16 30 31 0
-16 -30 -31 0
25 31 0
-25 -31 0
8 29 32 0
-8 -29 -32 0
17 30 32 0
-17 -30 -32 0
26 31 32 0
-26 -31 -32 0
