certificates/rado_a9_c285_N32.drat
-32 0
29 0
-5 0
2 0
8 0
-26 0
-31 0
23 0
20 0
0
